param set_len = 38;
param target_sum = 8748177529;
param values := [1] 668191593 [2] 175146548 [3] 452528788 [4] 567117011 [5] 718231345 [6] 902274949 [7] 121217318 [8] 809153082 [9] 281639055 [10] 500601900 [11] 882466156 [12] 582245329 [13] 510403940 [14] 402884433 [15] 758759822 [16] 451951441 [17] 23974169 [18] 107505347 [19] 358192574 [20] 291968925 [21] 854076729 [22] 245024874 [23] 311543508 [24] 95387397 [25] 94989579 [26] 412937960 [27] 805604326 [28] 683211551 [29] 440425982 [30] 639376195 [31] 735659277 [32] 573510079 [33] 670542340 [34] 374484467 [35] 100854662 [36] 1903369 [37] 201189967 [38] 376333776 ;
